2023.01
0 3 1 2 4 7 0
0 71 5 13 8 9 6 0
0 12 18 10 11 15 0
0 14 19 22 16 72 17 0
0 25 24 23 21 20 0
0 30 28 29 27 26 0
0 31 32 33 34 0
0 37 36 41 49 39 38 35 0
0 42 43 44 40 45 0
0 48 47 51 50 46 0
0 56 55 65 53 54 52 0
0 58 59 57 60 61 63 0
0 64 62 73 68 66 0
0 70 69 74 67 75 0
